(declare-fun a () Real)
(declare-fun b () Real)
(declare-fun c () Real)
(declare-fun opt () Real)
(assert (> a 0))
(assert (> b 0))
(assert (> c 0))
(assert (= 1 (+ a b c)))
(assert (= opt (+ (* a b) (* a c) (* b c) (- (* 2 a b c)))))
(maximize opt)
(check-sat)
(get-objectives)
